c generated by sgen
p cnf 101 212
-2 -3 -4 0
-1 -3 -4 0
-1 -2 -4 0
-1 -2 -3 0
-6 -7 -8 0
-5 -7 -8 0
-5 -6 -8 0
-5 -6 -7 0
-10 -11 -12 0
-9 -11 -12 0
-9 -10 -12 0
-9 -10 -11 0
-14 -15 -16 0
-13 -15 -16 0
-13 -14 -16 0
-13 -14 -15 0
-18 -19 -20 0
-17 -19 -20 0
-17 -18 -20 0
-17 -18 -19 0
-22 -23 -24 0
-21 -23 -24 0
-21 -22 -24 0
-21 -22 -23 0
-26 -27 -28 0
-25 -27 -28 0
-25 -26 -28 0
-25 -26 -27 0
-30 -31 -32 0
-29 -31 -32 0
-29 -30 -32 0
-29 -30 -31 0
-34 -35 -36 0
-33 -35 -36 0
-33 -34 -36 0
-33 -34 -35 0
-38 -39 -40 0
-37 -39 -40 0
-37 -38 -40 0
-37 -38 -39 0
-42 -43 -44 0
-41 -43 -44 0
-41 -42 -44 0
-41 -42 -43 0
-46 -47 -48 0
-45 -47 -48 0
-45 -46 -48 0
-45 -46 -47 0
-50 -51 -52 0
-49 -51 -52 0
-49 -50 -52 0
-49 -50 -51 0
-54 -55 -56 0
-53 -55 -56 0
-53 -54 -56 0
-53 -54 -55 0
-58 -59 -60 0
-57 -59 -60 0
-57 -58 -60 0
-57 -58 -59 0
-62 -63 -64 0
-61 -63 -64 0
-61 -62 -64 0
-61 -62 -63 0
-66 -67 -68 0
-65 -67 -68 0
-65 -66 -68 0
-65 -66 -67 0
-70 -71 -72 0
-69 -71 -72 0
-69 -70 -72 0
-69 -70 -71 0
-74 -75 -76 0
-73 -75 -76 0
-73 -74 -76 0
-73 -74 -75 0
-78 -79 -80 0
-77 -79 -80 0
-77 -78 -80 0
-77 -78 -79 0
-82 -83 -84 0
-81 -83 -84 0
-81 -82 -84 0
-81 -82 -83 0
-86 -87 -88 0
-85 -87 -88 0
-85 -86 -88 0
-85 -86 -87 0
-90 -91 -92 0
-89 -91 -92 0
-89 -90 -92 0
-89 -90 -91 0
-94 -95 -96 0
-93 -95 -96 0
-93 -94 -96 0
-93 -94 -95 0
-97 -98 -99 0
-97 -98 -100 0
-97 -98 -101 0
-97 -99 -100 0
-97 -99 -101 0
-97 -100 -101 0
-98 -99 -100 0
-98 -99 -101 0
-98 -100 -101 0
-99 -100 -101 0
59 50 53 0
22 50 53 0
22 59 53 0
22 59 50 0
48 54 3 0
30 54 3 0
30 48 3 0
30 48 54 0
40 94 81 0
64 94 81 0
64 40 81 0
64 40 94 0
70 16 60 0
96 16 60 0
96 70 60 0
96 70 16 0
84 67 71 0
52 67 71 0
52 84 71 0
52 84 67 0
61 7 9 0
45 7 9 0
45 61 9 0
45 61 7 0
26 39 31 0
41 39 31 0
41 26 31 0
41 26 39 0
12 18 86 0
97 18 86 0
97 12 86 0
97 12 18 0
42 65 36 0
62 65 36 0
62 42 36 0
62 42 65 0
32 73 89 0
6 73 89 0
6 32 89 0
6 32 73 0
93 8 35 0
55 8 35 0
55 93 35 0
55 93 8 0
13 77 85 0
82 77 85 0
82 13 85 0
82 13 77 0
57 78 37 0
75 78 37 0
75 57 37 0
75 57 78 0
90 4 51 0
38 4 51 0
38 90 51 0
38 90 4 0
56 68 17 0
101 68 17 0
101 56 17 0
101 56 68 0
15 92 10 0
66 92 10 0
66 15 10 0
66 15 92 0
5 99 25 0
49 99 25 0
49 5 25 0
49 5 99 0
91 72 88 0
34 72 88 0
34 91 88 0
34 91 72 0
47 98 79 0
33 98 79 0
33 47 79 0
33 47 98 0
20 83 28 0
23 83 28 0
23 20 28 0
23 20 83 0
19 58 44 0
46 58 44 0
46 19 44 0
46 19 58 0
63 14 2 0
100 14 2 0
100 63 2 0
100 63 14 0
76 27 29 0
87 27 29 0
87 76 29 0
87 76 27 0
1 80 95 0
24 80 95 0
24 1 95 0
24 1 80 0
74 21 43 0
74 21 69 0
74 21 11 0
74 43 69 0
74 43 11 0
74 69 11 0
21 43 69 0
21 43 11 0
21 69 11 0
43 69 11 0
